webassembly/ejemplos_dzn/folder13_json_51.dzn
TERM = { '.', 's(2)', 's(4)', 'in_1', 'local_0', 'local_1', 'in_2', 's(1)', 's(0)', 's(3)', 'in_0'};
null = '.';
s = 13;
n = 9;
ndeps = 4;
max_registers_sz = 5;
NR = 2;
registers = [|'local_0', 's(4)', |'local_1', 's(1)'|];
dependencies = [|'i32.store_0', 'i32.load16_s_1', |'i32.store_0', 'i32.load_9', |'i32.load16_s_1', 'i32.store16_10', |'i32.load_9', 'i32.store16_10'|];
GET_ENUM = { GET1, GET2, GET3, GET4, GET5, GET6, GET7};
SET_ENUM = { SET1, SET2, SET3, SET4, SET5, SET6, SET7};
TEE_ENUM = { TEE1, TEE2, TEE3, TEE4, TEE5, TEE6, TEE7};
N = 7;
OP = { 'i32.const_0', 'i32.add_0', 'i32.add_1', 'i32.store_0', 'i32.load16_s_1', 'i32.load_9', 'i32.store16_10' };
in_ops = [0, 2, 2, 2, 1, 1, 2 ];
out_ops = [1, 1, 1, 0, 1, 1, 0 ];
in1 = ['.', 'local_1', 's(1)', 'in_0', 'in_2', 's(1)', 's(2)' ];
in2 = ['.', 's(4)', 's(0)', 'in_1', '.', '.', 's(1)' ];
in3 = ['.', '.', '.', '.', '.', '.', '.' ];
out1 = ['s(4)', 's(1)', 's(3)', '.', 's(0)', 's(2)', '.' ];
out2 = ['.', '.', '.', '.', '.', '.', '.' ];
out3 = ['.', '.', '.', '.', '.', '.', '.' ];
comm = [false, true, true, false, false, false, false ];
gas = [1, 1, 1, 1, 1, 1, 1 ];
sz = [1, 1, 1, 1, 1, 1, 1 ];
stor = [false, false, false, true, false, false, true ];
lb = [ 1, 1, 1, 1, 1, 1, 1 ];
ub = [ 13, 13, 13, 13, 13, 13, 13 ];
startstack = [ 'in_0', 'in_1', 'in_2', null, null, null, null, null, null ];
endstack = [ 's(1)', 's(3)', null, null, null, null, null, null, null ];
